CapLotSizing_PM/src/Instancias/NCLSHT/6i6p2m/NBA00.OUT
 CG ITER, OVMR, OVMRUB =           1   11199.2119141    8453.1005859
 CG ITER, OVMR, OVMRUB =           2    8453.1005859    8453.1005859
 CG ITER, OVMR, OVMRUB =           3    8453.0986328    8453.1005859
 CG ITER, OVMR, OVMRUB =           4    8453.1005859    8453.1005859
 CG ITER, OVMR, OVMRUB =           5    8156.0214844    8451.4101562
 CG ITER, OVMR, OVMRUB =           6    8071.4262695    8401.4013672
 CG ITER, OVMR, OVMRUB =           7    8007.4521484    8401.4013672
 CG ITER, OVMR, OVMRUB =           8    7959.0263672    8401.4013672
 CG ITER, OVMR, OVMRUB =           9    7943.3037109    8401.4013672
 CG ITER, OVMR, OVMRUB =          10    7938.5195312    8401.4013672
 CG ITER, OVMR, OVMRUB =          11    7932.6757812    8401.4013672
 CG ITER, OVMR, OVMRUB =          12    7930.8842773    8401.4013672
 CG ITER, OVMR, OVMRUB =          13    7930.3193359    8401.4013672
 CG ITER, OVMR, OVMRUB =          14    7930.0478516    8239.0332031
 CG ITER, OVMR, OVMRUB =          15    7930.2138672    8140.3125000
OVLB =    7930.2138672 OVLUB =    8140.3125000 TIME =       1.0100000
